c Source: TUDataset AIDS, graph #1665
c Original: n=11, m=15
c Augmented: +7 edges, n=14 -> m=22, circuit_rank=9
c Augmented to satisfy Eulerian condition (no parallel edges)
p sp 14
e 4 6
e 10 11
e 5 11
e 2 10
e 1 4
e 1 10
e 3 6
e 2 9
e 4 11
e 2 3
e 1 3
e 5 6
e 7 8
e 4 7
e 2 5
e 1 12
e 10 12
e 3 13
e 6 13
e 5 14
e 11 14
e 8 9
